# Solution for model GasLib-40
# Objective value = 5.7332665118472590e+01
loadshed[innode_1] 0
loadshed[innode_2] 0
loadshed[innode_3] 0
loadshed[innode_4] 0
loadshed[innode_5] 0
loadshed[innode_6] 0
loadshed[innode_7] 0
loadshed[innode_8] 0
loadshed[source_1] -1.1220264781193245e-01
loadshed[source_2] 2.3286724030486761e-01
loadshed[source_3] 2.4199316182538178e-01
loadshed[sink_1] 4.9125729546577335e-01
loadshed[sink_2] 0
loadshed[sink_3] 0
loadshed[sink_4] 0
loadshed[sink_5] 0
loadshed[sink_6] 0
loadshed[sink_7] 0
loadshed[sink_8] 0
loadshed[sink_9] 1.3753916053382786e-01
loadshed[sink_10] 0
loadshed[sink_11] 0
loadshed[sink_12] 1
loadshed[sink_13] 0
loadshed[sink_14] 0
loadshed[sink_15] 0
loadshed[sink_16] 0
loadshed[sink_17] 0
loadshed[sink_18] 0
loadshed[sink_19] 0
loadshed[sink_20] 0
loadshed[sink_21] 1
loadshed[sink_22] 0
loadshed[sink_23] 0
loadshed[sink_24] 8.7689516907897758e-01
loadshed[sink_25] 0
loadshed[sink_26] 0
loadshed[sink_27] 0
loadshed[sink_28] 0
loadshed[sink_29] 0
flow[source_1,sink_3] 1.7582842553776834e+02
flow[innode_1,sink_16] 1.6354166666666970e+01
flow[innode_6,sink_13] -5.3543449378135008e+00
flow[sink_13,sink_14] -2.1708511604480169e+01
flow[sink_14,sink_10] -3.8062678271146837e+01
flow[sink_25,sink_26] 1.1678865638632222e+02
flow[sink_26,sink_9] 0
flow[sink_9,sink_18] -1.4104828312103026e+01
flow[sink_26,sink_4] 1.0043448971965540e+02
flow[sink_4,sink_20] -5.4837011828540312e+01
flow[sink_18,sink_6] -3.0458994978769695e+01
flow[sink_25,innode_8] -1.4312009220443198e+02
flow[sink_6,sink_7] -7.1487391292506459e+01
flow[sink_6,sink_22] 2.4674229647070167e+01
flow[sink_7,sink_24] 2.0132769223542186e+00
flow[sink_22,sink_1] 8.3200629804034989e+00
flow[sink_24,sink_21] 0
flow[sink_21,sink_12] 0
flow[sink_7,sink_5] -8.9854834881527353e+01
flow[sink_5,sink_17] -1.0620900154819402e+02
flow[sink_17,sink_4] -1.3891733488152903e+02
flow[sink_17,sink_8] 1.6354166666668334e+01
flow[sink_3,sink_23] 16.3541666666697
flow[sink_8,sink_20] 0
flow[sink_25,sink_20] 7.1191178495206941e+01
flow[sink_25,sink_15] -55.8595644059513
flow[sink_15,sink_29] -8.8567897739302225e+01
flow[sink_29,sink_28] 1.6354166666667879e+01
flow[sink_29,sink_2] 0
flow[sink_2,sink_15] -1.6354166666684250e+01
flow[sink_29,innode_7] -1.2127623107263673e+02
flow[innode_4,sink_19] 4.6478996293788938e+01
flow[sink_19,innode_3] 4.2516719241142255e+01
flow[innode_4,innode_5] 73.3545153106915
flow[sink_27,innode_5] -73.3545153106915
flow[sink_27,sink_19] 5.7000348644024832e+01
flow[sink_10,sink_11] 3.2708333333333641e+01
flow[sink_10,innode_2] -4.4608459030004887e+01
flow[sink_10,innode_3] -4.2516719241142255e+01
flow[innode_6,sink_25] 5.3543449378135008e+00
flow[sink_11,innode_1] 1.6354166666666970e+01
flow[sink_19,innode_2] 4.4608459030004887e+01
flow[source_3,innode_4] 1.1983351160448044e+02
flow[source_2,innode_7] 1.2127623107263673e+02
flow[sink_3,innode_8] 1.4312009220443198e+02
pressure[innode_1] 7.6620824824671914e+01
pressure[innode_2] 7.9130267430981064e+01
pressure[innode_3] 7.9036118970717723e+01
pressure[innode_4] 81.01325
pressure[innode_5] 8.0962792896373728e+01
pressure[innode_6] 74.9038480560871
pressure[innode_7] 81.01325
pressure[innode_8] 80.4255227423204
pressure[source_1] 81.01325
pressure[source_2] 81.01325
pressure[source_3] 81.01325
pressure[sink_1] 1.0132500000000002e+00
pressure[sink_2] 7.5121428624468749e+01
pressure[sink_3] 80.4255227423204
pressure[sink_4] 5.3908990613952447e+01
pressure[sink_5] 4.0688225225905526e+01
pressure[sink_6] 2.3369505822294272e+00
pressure[sink_7] 3.3183020645249854e+00
pressure[sink_8] 4.7982942945119120e+01
pressure[sink_9] 1.0132500000000002e+00
pressure[sink_10] 7.6772526132275459e+01
pressure[sink_11] 7.6620824824671914e+01
pressure[sink_12] 1.01325
pressure[sink_13] 7.4933365664935110e+01
pressure[sink_14] 7.4972214895607635e+01
pressure[sink_15] 75.1748213742352
pressure[sink_16] 7.5599174989854234e+01
pressure[sink_17] 4.8600028140532743e+01
pressure[sink_18] 1.5236047279502622e+00
pressure[sink_19] 7.9130267430981064e+01
pressure[sink_20] 5.7932088779883131e+01
pressure[sink_21] 1.01325
pressure[sink_22] 1.5544347904817326e+00
pressure[sink_23] 8.0260804730660610e+01
pressure[sink_24] 1.01325
pressure[sink_25] 74.9038480560871
pressure[sink_26] 6.6678491572972831e+01
pressure[sink_27] 8.0354085963864989e+01
pressure[sink_28] 7.7474303644279175e+01
pressure[sink_29] 7.7769585917896350e+01
interdiction[source_1,sink_3] 0
interdiction[innode_1,sink_16] 0
interdiction[innode_6,sink_13] 0
interdiction[sink_13,sink_14] 0
interdiction[sink_14,sink_10] 0
interdiction[sink_25,sink_26] 0
interdiction[sink_26,sink_9] 1
interdiction[sink_9,sink_18] 0
interdiction[sink_26,sink_4] 0
interdiction[sink_4,sink_20] 0
interdiction[sink_18,sink_6] 0
interdiction[sink_25,innode_8] 0
interdiction[sink_6,sink_7] 0
interdiction[sink_6,sink_22] 0
interdiction[sink_7,sink_24] 0
interdiction[sink_22,sink_1] 0
interdiction[sink_24,sink_21] 0
interdiction[sink_21,sink_12] 0
interdiction[sink_7,sink_5] 0
interdiction[sink_5,sink_17] 0
interdiction[sink_17,sink_4] 0
interdiction[sink_17,sink_8] 0
interdiction[sink_3,sink_23] 0
interdiction[sink_8,sink_20] 1
interdiction[sink_25,sink_20] 0
interdiction[sink_25,sink_15] 0
interdiction[sink_15,sink_29] 0
interdiction[sink_29,sink_28] 0
interdiction[sink_29,sink_2] 1
interdiction[sink_2,sink_15] 0
interdiction[sink_29,innode_7] 0
interdiction[innode_4,sink_19] 0
interdiction[sink_19,innode_3] 0
interdiction[innode_4,innode_5] 0
interdiction[sink_27,innode_5] 0
interdiction[sink_27,sink_19] 0
interdiction[sink_10,sink_11] 0
interdiction[sink_10,innode_2] 0
interdiction[sink_10,innode_3] 0
interdiction[innode_6,sink_25] 0
interdiction[sink_11,innode_1] 0
interdiction[sink_19,innode_2] 0
interdiction[source_3,innode_4] 0
interdiction[source_2,innode_7] 0
interdiction[sink_3,innode_8] 0
WCcheckFlow[source_1,sink_3] 39
WCcheckFlow[innode_1,sink_16] 1
WCcheckFlow[innode_6,sink_13] 13
WCcheckFlow[sink_13,sink_14] 12
WCcheckFlow[sink_14,sink_10] 11
WCcheckFlow[sink_25,sink_26] 15
WCcheckFlow[sink_26,sink_9] 0
WCcheckFlow[sink_9,sink_18] -1
WCcheckFlow[sink_26,sink_4] 14
WCcheckFlow[sink_4,sink_20] 1
WCcheckFlow[sink_18,sink_6] -2
WCcheckFlow[sink_25,innode_8] -36
WCcheckFlow[sink_6,sink_7] -5
WCcheckFlow[sink_6,sink_22] 2
WCcheckFlow[sink_7,sink_24] 3
WCcheckFlow[sink_22,sink_1] 1
WCcheckFlow[sink_24,sink_21] 2
WCcheckFlow[sink_21,sink_12] 1
WCcheckFlow[sink_7,sink_5] -9
WCcheckFlow[sink_5,sink_17] -10
WCcheckFlow[sink_17,sink_4] -12
WCcheckFlow[sink_17,sink_8] 1
WCcheckFlow[sink_3,sink_23] 1
WCcheckFlow[sink_8,sink_20] 0
WCcheckFlow[sink_25,sink_20] 0
WCcheckFlow[sink_25,sink_15] 6
WCcheckFlow[sink_15,sink_29] 4
WCcheckFlow[sink_29,sink_28] 1
WCcheckFlow[sink_29,sink_2] 0
WCcheckFlow[sink_2,sink_15] -1
WCcheckFlow[sink_29,innode_7] 2
WCcheckFlow[innode_4,sink_19] -4
WCcheckFlow[sink_19,innode_3] -5
WCcheckFlow[innode_4,innode_5] 2
WCcheckFlow[sink_27,innode_5] -1
WCcheckFlow[sink_27,sink_19] 0
WCcheckFlow[sink_10,sink_11] 3
WCcheckFlow[sink_10,innode_2] 1
WCcheckFlow[sink_10,innode_3] 6
WCcheckFlow[innode_6,sink_25] -14
WCcheckFlow[sink_11,innode_1] 2
WCcheckFlow[sink_19,innode_2] 0
WCcheckFlow[source_3,innode_4] -1
WCcheckFlow[source_2,innode_7] -1
WCcheckFlow[sink_3,innode_8] 37
